maximize
0.25V(0,27) + 0.25V(0,10) + 0.25V(0,15) + 0.25V(0,18)
subject to
V(0,27) - 1F(0,27) - 0F(0,10) - 0F(0,15) - 0F(0,18) - V(1,27) <= 0
V(0,10) - 0F(0,27) - 1F(0,10) - 0F(0,15) - 0F(0,18) - V(1,10) <= 0
V(0,15) - 0F(0,27) - 0F(0,10) - 1F(0,15) - 0F(0,18) - V(1,15) <= 0
V(0,18) - 0F(0,27) - 0F(0,10) - 0F(0,15) - 1F(0,18) - V(1,18) <= 0
V(0,27) - 1F(0,27) - 0F(0,10) - 0F(0,15) - 0F(0,18) - V(2,27) <= 0
V(0,10) - 0F(0,27) - 1F(0,10) - 0F(0,15) - 0F(0,18) - V(2,10) <= 0
V(0,15) - 0F(0,27) - 0F(0,10) - 1F(0,15) - 0F(0,18) - V(2,15) <= 0
V(0,18) - 0F(0,27) - 0F(0,10) - 0F(0,15) - 1F(0,18) - V(2,18) <= 0
V(1,27) - 1F(1,27) - 0F(1,10) - 0F(1,15) - 0F(1,18) - V(4,27) <= 0
V(1,10) - 0F(1,27) - 1F(1,10) - 0F(1,15) - 0F(1,18) - V(4,10) <= 0
V(1,15) - 0F(1,27) - 0F(1,10) - 1F(1,15) - 0F(1,18) - V(4,15) <= 0
V(1,18) - 0F(1,27) - 0F(1,10) - 0F(1,15) - 1F(1,18) - V(4,18) <= 0
V(2,27) - 1F(2,27) - 0F(2,10) - 0F(2,15) - 0F(2,18) - V(6,27) <= 0
V(2,10) - 0F(2,27) - 1F(2,10) - 0F(2,15) - 0F(2,18) - V(6,10) <= 0
V(2,15) - 0F(2,27) - 0F(2,10) - 1F(2,15) - 0F(2,18) - V(6,15) <= 0
V(2,18) - 0F(2,27) - 0F(2,10) - 0F(2,15) - 1F(2,18) - V(6,18) <= 0
V(3,27) - 1F(3,27) - 0F(3,10) - 0F(3,15) - 0F(3,18) - V(7,27) <= 0
V(3,10) - 0F(3,27) - 1F(3,10) - 0F(3,15) - 0F(3,18) - V(7,10) <= 0
V(3,15) - 0F(3,27) - 0F(3,10) - 1F(3,15) - 0F(3,18) - V(7,15) <= 0
V(3,18) - 0F(3,27) - 0F(3,10) - 0F(3,15) - 1F(3,18) - V(7,18) <= 0
V(4,27) - 1F(4,27) - 0F(4,10) - 0F(4,15) - 0F(4,18) - V(5,27) <= 0
V(4,10) - 0F(4,27) - 1F(4,10) - 0F(4,15) - 0F(4,18) - V(5,10) <= 0
V(4,15) - 0F(4,27) - 0F(4,10) - 1F(4,15) - 0F(4,18) - V(5,15) <= 0
V(4,18) - 0F(4,27) - 0F(4,10) - 0F(4,15) - 1F(4,18) - V(5,18) <= 0
V(5,27) - 1F(5,27) - 0F(5,10) - 0F(5,15) - 0F(5,18) - V(6,27) <= 0
V(5,10) - 0F(5,27) - 1F(5,10) - 0F(5,15) - 0F(5,18) - V(6,10) <= 0
V(5,15) - 0F(5,27) - 0F(5,10) - 1F(5,15) - 0F(5,18) - V(6,15) <= 0
V(5,18) - 0F(5,27) - 0F(5,10) - 0F(5,15) - 1F(5,18) - V(6,18) <= 0
V(6,27) - 1F(6,27) - 0F(6,10) - 0F(6,15) - 0F(6,18) - V(13,27) <= 0
V(6,10) - 0F(6,27) - 1F(6,10) - 0F(6,15) - 0F(6,18) - V(13,10) <= 0
V(6,15) - 0F(6,27) - 0F(6,10) - 1F(6,15) - 0F(6,18) - V(13,15) <= 0
V(6,18) - 0F(6,27) - 0F(6,10) - 0F(6,15) - 1F(6,18) - V(13,18) <= 0
V(13,27) - 1F(13,27) - 0F(13,10) - 0F(13,15) - 0F(13,18) - V(14,27) <= 0
V(13,10) - 0F(13,27) - 1F(13,10) - 0F(13,15) - 0F(13,18) - V(14,10) <= 0
V(13,15) - 0F(13,27) - 0F(13,10) - 1F(13,15) - 0F(13,18) - V(14,15) <= 0
V(13,18) - 0F(13,27) - 0F(13,10) - 0F(13,15) - 1F(13,18) - V(14,18) <= 0
V(7,27) - 1F(7,27) - 0F(7,10) - 0F(7,15) - 0F(7,18) - V(15,27) <= 0
V(7,10) - 0F(7,27) - 1F(7,10) - 0F(7,15) - 0F(7,18) - V(15,10) <= 0
V(7,15) - 0F(7,27) - 0F(7,10) - 1F(7,15) - 0F(7,18) - V(15,15) <= 0
V(7,18) - 0F(7,27) - 0F(7,10) - 0F(7,15) - 1F(7,18) - V(15,18) <= 0
V(5,27) - 1F(5,27) - 0F(5,10) - 0F(5,15) - 0F(5,18) - V(11,27) <= 0
V(5,10) - 0F(5,27) - 1F(5,10) - 0F(5,15) - 0F(5,18) - V(11,10) <= 0
V(5,15) - 0F(5,27) - 0F(5,10) - 1F(5,15) - 0F(5,18) - V(11,15) <= 0
V(5,18) - 0F(5,27) - 0F(5,10) - 0F(5,15) - 1F(5,18) - V(11,18) <= 0
V(10,27) - 1F(10,27) - 0F(10,10) - 0F(10,15) - 0F(10,18) - V(11,27) <= 0
V(10,10) = 0
V(10,15) - 0F(10,27) - 0F(10,10) - 1F(10,15) - 0F(10,18) - V(11,15) <= 0
V(10,18) - 0F(10,27) - 0F(10,10) - 0F(10,15) - 1F(10,18) - V(11,18) <= 0
V(11,27) - 1F(11,27) - 0F(11,10) - 0F(11,15) - 0F(11,18) - V(12,27) <= 0
V(11,10) - 0F(11,27) - 1F(11,10) - 0F(11,15) - 0F(11,18) - V(12,10) <= 0
V(11,15) - 0F(11,27) - 0F(11,10) - 1F(11,15) - 0F(11,18) - V(12,15) <= 0
V(11,18) - 0F(11,27) - 0F(11,10) - 0F(11,15) - 1F(11,18) - V(12,18) <= 0
V(12,27) - 1F(12,27) - 0F(12,10) - 0F(12,15) - 0F(12,18) - V(13,27) <= 0
V(12,10) - 0F(12,27) - 1F(12,10) - 0F(12,15) - 0F(12,18) - V(13,10) <= 0
V(12,15) - 0F(12,27) - 0F(12,10) - 1F(12,15) - 0F(12,18) - V(13,15) <= 0
V(12,18) - 0F(12,27) - 0F(12,10) - 0F(12,15) - 1F(12,18) - V(13,18) <= 0
V(11,27) - 1F(11,27) - 0F(11,10) - 0F(11,15) - 0F(11,18) - V(16,27) <= 0
V(11,10) - 0F(11,27) - 1F(11,10) - 0F(11,15) - 0F(11,18) - V(16,10) <= 0
V(11,15) - 0F(11,27) - 0F(11,10) - 1F(11,15) - 0F(11,18) - V(16,15) <= 0
V(11,18) - 0F(11,27) - 0F(11,10) - 0F(11,15) - 1F(11,18) - V(16,18) <= 0
V(12,27) - 1F(12,27) - 0F(12,10) - 0F(12,15) - 0F(12,18) - V(17,27) <= 0
V(12,10) - 0F(12,27) - 1F(12,10) - 0F(12,15) - 0F(12,18) - V(17,10) <= 0
V(12,15) - 0F(12,27) - 0F(12,10) - 1F(12,15) - 0F(12,18) - V(17,15) <= 0
V(12,18) - 0F(12,27) - 0F(12,10) - 0F(12,15) - 1F(12,18) - V(17,18) <= 0
V(10,27) - 1F(10,27) - 0F(10,10) - 0F(10,15) - 0F(10,18) - V(8,27) <= 0
V(10,10) = 0
V(10,15) - 0F(10,27) - 0F(10,10) - 1F(10,15) - 0F(10,18) - V(8,15) <= 0
V(10,18) - 0F(10,27) - 0F(10,10) - 0F(10,15) - 1F(10,18) - V(8,18) <= 0
V(8,27) - 1F(8,27) - 0F(8,10) - 0F(8,15) - 0F(8,18) - V(9,27) <= 0
V(8,10) - 0F(8,27) - 1F(8,10) - 0F(8,15) - 0F(8,18) - V(9,10) <= 0
V(8,15) - 0F(8,27) - 0F(8,10) - 1F(8,15) - 0F(8,18) - V(9,15) <= 0
V(8,18) - 0F(8,27) - 0F(8,10) - 0F(8,15) - 1F(8,18) - V(9,18) <= 0
V(16,27) - 1F(16,27) - 0F(16,10) - 0F(16,15) - 0F(16,18) - V(20,27) <= 0
V(16,10) - 0F(16,27) - 1F(16,10) - 0F(16,15) - 0F(16,18) - V(20,10) <= 0
V(16,15) - 0F(16,27) - 0F(16,10) - 1F(16,15) - 0F(16,18) - V(20,15) <= 0
V(16,18) - 0F(16,27) - 0F(16,10) - 0F(16,15) - 1F(16,18) - V(20,18) <= 0
V(17,27) - 1F(17,27) - 0F(17,10) - 0F(17,15) - 0F(17,18) - V(20,27) <= 0
V(17,10) - 0F(17,27) - 1F(17,10) - 0F(17,15) - 0F(17,18) - V(20,10) <= 0
V(17,15) - 0F(17,27) - 0F(17,10) - 1F(17,15) - 0F(17,18) - V(20,15) <= 0
V(17,18) - 0F(17,27) - 0F(17,10) - 0F(17,15) - 1F(17,18) - V(20,18) <= 0
V(20,27) - 1F(20,27) - 0F(20,10) - 0F(20,15) - 0F(20,18) - V(23,27) <= 0
V(20,10) - 0F(20,27) - 1F(20,10) - 0F(20,15) - 0F(20,18) - V(23,10) <= 0
V(20,15) - 0F(20,27) - 0F(20,10) - 1F(20,15) - 0F(20,18) - V(23,15) <= 0
V(20,18) - 0F(20,27) - 0F(20,10) - 0F(20,15) - 1F(20,18) - V(23,18) <= 0
V(15,27) - 1F(15,27) - 0F(15,10) - 0F(15,15) - 0F(15,18) - V(23,27) <= 0
V(15,10) - 0F(15,27) - 1F(15,10) - 0F(15,15) - 0F(15,18) - V(23,10) <= 0
V(15,15) = 0
V(15,18) - 0F(15,27) - 0F(15,10) - 0F(15,15) - 1F(15,18) - V(23,18) <= 0
V(16,27) - 1F(16,27) - 0F(16,10) - 0F(16,15) - 0F(16,18) - V(19,27) <= 0
V(16,10) - 0F(16,27) - 1F(16,10) - 0F(16,15) - 0F(16,18) - V(19,10) <= 0
V(16,15) - 0F(16,27) - 0F(16,10) - 1F(16,15) - 0F(16,18) - V(19,15) <= 0
V(16,18) - 0F(16,27) - 0F(16,10) - 0F(16,15) - 1F(16,18) - V(19,18) <= 0
V(19,27) - 1F(19,27) - 0F(19,10) - 0F(19,15) - 0F(19,18) - V(9,27) <= 0
V(19,10) - 0F(19,27) - 1F(19,10) - 0F(19,15) - 0F(19,18) - V(9,10) <= 0
V(19,15) - 0F(19,27) - 0F(19,10) - 1F(19,15) - 0F(19,18) - V(9,15) <= 0
V(19,18) - 0F(19,27) - 0F(19,10) - 0F(19,15) - 1F(19,18) - V(9,18) <= 0
V(9,27) - 1F(9,27) - 0F(9,10) - 0F(9,15) - 0F(9,18) - V(18,27) <= 0
V(9,10) - 0F(9,27) - 1F(9,10) - 0F(9,15) - 0F(9,18) - V(18,10) <= 0
V(9,15) - 0F(9,27) - 0F(9,10) - 1F(9,15) - 0F(9,18) - V(18,15) <= 0
V(9,18) - 0F(9,27) - 0F(9,10) - 0F(9,15) - 1F(9,18) - V(18,18) <= 0
V(18,27) - 1F(18,27) - 0F(18,10) - 0F(18,15) - 0F(18,18) - V(21,27) <= 0
V(18,10) - 0F(18,27) - 1F(18,10) - 0F(18,15) - 0F(18,18) - V(21,10) <= 0
V(18,15) - 0F(18,27) - 0F(18,10) - 1F(18,15) - 0F(18,18) - V(21,15) <= 0
V(18,18) = 0
V(19,27) - 1F(19,27) - 0F(19,10) - 0F(19,15) - 0F(19,18) - V(21,27) <= 0
V(19,10) - 0F(19,27) - 1F(19,10) - 0F(19,15) - 0F(19,18) - V(21,10) <= 0
V(19,15) - 0F(19,27) - 0F(19,10) - 1F(19,15) - 0F(19,18) - V(21,15) <= 0
V(19,18) - 0F(19,27) - 0F(19,10) - 0F(19,15) - 1F(19,18) - V(21,18) <= 0
V(19,27) - 1F(19,27) - 0F(19,10) - 0F(19,15) - 0F(19,18) - V(22,27) <= 0
V(19,10) - 0F(19,27) - 1F(19,10) - 0F(19,15) - 0F(19,18) - V(22,10) <= 0
V(19,15) - 0F(19,27) - 0F(19,10) - 1F(19,15) - 0F(19,18) - V(22,15) <= 0
V(19,18) - 0F(19,27) - 0F(19,10) - 0F(19,15) - 1F(19,18) - V(22,18) <= 0
V(21,27) - 1F(21,27) - 0F(21,10) - 0F(21,15) - 0F(21,18) - V(24,27) <= 0
V(21,10) - 0F(21,27) - 1F(21,10) - 0F(21,15) - 0F(21,18) - V(24,10) <= 0
V(21,15) - 0F(21,27) - 0F(21,10) - 1F(21,15) - 0F(21,18) - V(24,15) <= 0
V(21,18) - 0F(21,27) - 0F(21,10) - 0F(21,15) - 1F(21,18) - V(24,18) <= 0
V(22,27) - 1F(22,27) - 0F(22,10) - 0F(22,15) - 0F(22,18) - V(24,27) <= 0
V(22,10) - 0F(22,27) - 1F(22,10) - 0F(22,15) - 0F(22,18) - V(24,10) <= 0
V(22,15) - 0F(22,27) - 0F(22,10) - 1F(22,15) - 0F(22,18) - V(24,15) <= 0
V(22,18) - 0F(22,27) - 0F(22,10) - 0F(22,15) - 1F(22,18) - V(24,18) <= 0
V(24,27) - 1F(24,27) - 0F(24,10) - 0F(24,15) - 0F(24,18) - V(26,27) <= 0
V(24,10) - 0F(24,27) - 1F(24,10) - 0F(24,15) - 0F(24,18) - V(26,10) <= 0
V(24,15) - 0F(24,27) - 0F(24,10) - 1F(24,15) - 0F(24,18) - V(26,15) <= 0
V(24,18) - 0F(24,27) - 0F(24,10) - 0F(24,15) - 1F(24,18) - V(26,18) <= 0
V(26,27) - 1F(26,27) - 0F(26,10) - 0F(26,15) - 0F(26,18) - V(27,27) <= 0
V(26,10) - 0F(26,27) - 1F(26,10) - 0F(26,15) - 0F(26,18) - V(27,10) <= 0
V(26,15) - 0F(26,27) - 0F(26,10) - 1F(26,15) - 0F(26,18) - V(27,15) <= 0
V(26,18) - 0F(26,27) - 0F(26,10) - 0F(26,15) - 1F(26,18) - V(27,18) <= 0
V(27,27) = 0
V(27,10) - 0F(27,27) - 1F(27,10) - 0F(27,15) - 0F(27,18) - V(28,10) <= 0
V(27,15) - 0F(27,27) - 0F(27,10) - 1F(27,15) - 0F(27,18) - V(28,15) <= 0
V(27,18) - 0F(27,27) - 0F(27,10) - 0F(27,15) - 1F(27,18) - V(28,18) <= 0
V(28,27) - 1F(28,27) - 0F(28,10) - 0F(28,15) - 0F(28,18) - V(25,27) <= 0
V(28,10) - 0F(28,27) - 1F(28,10) - 0F(28,15) - 0F(28,18) - V(25,10) <= 0
V(28,15) - 0F(28,27) - 0F(28,10) - 1F(28,15) - 0F(28,18) - V(25,15) <= 0
V(28,18) - 0F(28,27) - 0F(28,10) - 0F(28,15) - 1F(28,18) - V(25,18) <= 0
V(25,27) - 1F(25,27) - 0F(25,10) - 0F(25,15) - 0F(25,18) - V(23,27) <= 0
V(25,10) - 0F(25,27) - 1F(25,10) - 0F(25,15) - 0F(25,18) - V(23,10) <= 0
V(25,15) - 0F(25,27) - 0F(25,10) - 1F(25,15) - 0F(25,18) - V(23,15) <= 0
V(25,18) - 0F(25,27) - 0F(25,10) - 0F(25,15) - 1F(25,18) - V(23,18) <= 0
V(1,27) - 1F(1,27) - 0F(1,10) - 0F(1,15) - 0F(1,18) - V(0,27) <= 0
V(1,10) - 0F(1,27) - 1F(1,10) - 0F(1,15) - 0F(1,18) - V(0,10) <= 0
V(1,15) - 0F(1,27) - 0F(1,10) - 1F(1,15) - 0F(1,18) - V(0,15) <= 0
V(1,18) - 0F(1,27) - 0F(1,10) - 0F(1,15) - 1F(1,18) - V(0,18) <= 0
V(2,27) - 1F(2,27) - 0F(2,10) - 0F(2,15) - 0F(2,18) - V(0,27) <= 0
V(2,10) - 0F(2,27) - 1F(2,10) - 0F(2,15) - 0F(2,18) - V(0,10) <= 0
V(2,15) - 0F(2,27) - 0F(2,10) - 1F(2,15) - 0F(2,18) - V(0,15) <= 0
V(2,18) - 0F(2,27) - 0F(2,10) - 0F(2,15) - 1F(2,18) - V(0,18) <= 0
V(4,27) - 1F(4,27) - 0F(4,10) - 0F(4,15) - 0F(4,18) - V(1,27) <= 0
V(4,10) - 0F(4,27) - 1F(4,10) - 0F(4,15) - 0F(4,18) - V(1,10) <= 0
V(4,15) - 0F(4,27) - 0F(4,10) - 1F(4,15) - 0F(4,18) - V(1,15) <= 0
V(4,18) - 0F(4,27) - 0F(4,10) - 0F(4,15) - 1F(4,18) - V(1,18) <= 0
V(6,27) - 1F(6,27) - 0F(6,10) - 0F(6,15) - 0F(6,18) - V(2,27) <= 0
V(6,10) - 0F(6,27) - 1F(6,10) - 0F(6,15) - 0F(6,18) - V(2,10) <= 0
V(6,15) - 0F(6,27) - 0F(6,10) - 1F(6,15) - 0F(6,18) - V(2,15) <= 0
V(6,18) - 0F(6,27) - 0F(6,10) - 0F(6,15) - 1F(6,18) - V(2,18) <= 0
V(7,27) - 1F(7,27) - 0F(7,10) - 0F(7,15) - 0F(7,18) - V(3,27) <= 0
V(7,10) - 0F(7,27) - 1F(7,10) - 0F(7,15) - 0F(7,18) - V(3,10) <= 0
V(7,15) - 0F(7,27) - 0F(7,10) - 1F(7,15) - 0F(7,18) - V(3,15) <= 0
V(7,18) - 0F(7,27) - 0F(7,10) - 0F(7,15) - 1F(7,18) - V(3,18) <= 0
V(5,27) - 1F(5,27) - 0F(5,10) - 0F(5,15) - 0F(5,18) - V(4,27) <= 0
V(5,10) - 0F(5,27) - 1F(5,10) - 0F(5,15) - 0F(5,18) - V(4,10) <= 0
V(5,15) - 0F(5,27) - 0F(5,10) - 1F(5,15) - 0F(5,18) - V(4,15) <= 0
V(5,18) - 0F(5,27) - 0F(5,10) - 0F(5,15) - 1F(5,18) - V(4,18) <= 0
V(6,27) - 1F(6,27) - 0F(6,10) - 0F(6,15) - 0F(6,18) - V(5,27) <= 0
V(6,10) - 0F(6,27) - 1F(6,10) - 0F(6,15) - 0F(6,18) - V(5,10) <= 0
V(6,15) - 0F(6,27) - 0F(6,10) - 1F(6,15) - 0F(6,18) - V(5,15) <= 0
V(6,18) - 0F(6,27) - 0F(6,10) - 0F(6,15) - 1F(6,18) - V(5,18) <= 0
V(13,27) - 1F(13,27) - 0F(13,10) - 0F(13,15) - 0F(13,18) - V(6,27) <= 0
V(13,10) - 0F(13,27) - 1F(13,10) - 0F(13,15) - 0F(13,18) - V(6,10) <= 0
V(13,15) - 0F(13,27) - 0F(13,10) - 1F(13,15) - 0F(13,18) - V(6,15) <= 0
V(13,18) - 0F(13,27) - 0F(13,10) - 0F(13,15) - 1F(13,18) - V(6,18) <= 0
V(14,27) - 1F(14,27) - 0F(14,10) - 0F(14,15) - 0F(14,18) - V(13,27) <= 0
V(14,10) - 0F(14,27) - 1F(14,10) - 0F(14,15) - 0F(14,18) - V(13,10) <= 0
V(14,15) - 0F(14,27) - 0F(14,10) - 1F(14,15) - 0F(14,18) - V(13,15) <= 0
V(14,18) - 0F(14,27) - 0F(14,10) - 0F(14,15) - 1F(14,18) - V(13,18) <= 0
V(15,27) - 1F(15,27) - 0F(15,10) - 0F(15,15) - 0F(15,18) - V(7,27) <= 0
V(15,10) - 0F(15,27) - 1F(15,10) - 0F(15,15) - 0F(15,18) - V(7,10) <= 0
V(15,15) = 0
V(15,18) - 0F(15,27) - 0F(15,10) - 0F(15,15) - 1F(15,18) - V(7,18) <= 0
V(11,27) - 1F(11,27) - 0F(11,10) - 0F(11,15) - 0F(11,18) - V(5,27) <= 0
V(11,10) - 0F(11,27) - 1F(11,10) - 0F(11,15) - 0F(11,18) - V(5,10) <= 0
V(11,15) - 0F(11,27) - 0F(11,10) - 1F(11,15) - 0F(11,18) - V(5,15) <= 0
V(11,18) - 0F(11,27) - 0F(11,10) - 0F(11,15) - 1F(11,18) - V(5,18) <= 0
V(11,27) - 1F(11,27) - 0F(11,10) - 0F(11,15) - 0F(11,18) - V(10,27) <= 0
V(11,10) - 0F(11,27) - 1F(11,10) - 0F(11,15) - 0F(11,18) - V(10,10) <= 0
V(11,15) - 0F(11,27) - 0F(11,10) - 1F(11,15) - 0F(11,18) - V(10,15) <= 0
V(11,18) - 0F(11,27) - 0F(11,10) - 0F(11,15) - 1F(11,18) - V(10,18) <= 0
V(12,27) - 1F(12,27) - 0F(12,10) - 0F(12,15) - 0F(12,18) - V(11,27) <= 0
V(12,10) - 0F(12,27) - 1F(12,10) - 0F(12,15) - 0F(12,18) - V(11,10) <= 0
V(12,15) - 0F(12,27) - 0F(12,10) - 1F(12,15) - 0F(12,18) - V(11,15) <= 0
V(12,18) - 0F(12,27) - 0F(12,10) - 0F(12,15) - 1F(12,18) - V(11,18) <= 0
V(13,27) - 1F(13,27) - 0F(13,10) - 0F(13,15) - 0F(13,18) - V(12,27) <= 0
V(13,10) - 0F(13,27) - 1F(13,10) - 0F(13,15) - 0F(13,18) - V(12,10) <= 0
V(13,15) - 0F(13,27) - 0F(13,10) - 1F(13,15) - 0F(13,18) - V(12,15) <= 0
V(13,18) - 0F(13,27) - 0F(13,10) - 0F(13,15) - 1F(13,18) - V(12,18) <= 0
V(16,27) - 1F(16,27) - 0F(16,10) - 0F(16,15) - 0F(16,18) - V(11,27) <= 0
V(16,10) - 0F(16,27) - 1F(16,10) - 0F(16,15) - 0F(16,18) - V(11,10) <= 0
V(16,15) - 0F(16,27) - 0F(16,10) - 1F(16,15) - 0F(16,18) - V(11,15) <= 0
V(16,18) - 0F(16,27) - 0F(16,10) - 0F(16,15) - 1F(16,18) - V(11,18) <= 0
V(17,27) - 1F(17,27) - 0F(17,10) - 0F(17,15) - 0F(17,18) - V(12,27) <= 0
V(17,10) - 0F(17,27) - 1F(17,10) - 0F(17,15) - 0F(17,18) - V(12,10) <= 0
V(17,15) - 0F(17,27) - 0F(17,10) - 1F(17,15) - 0F(17,18) - V(12,15) <= 0
V(17,18) - 0F(17,27) - 0F(17,10) - 0F(17,15) - 1F(17,18) - V(12,18) <= 0
V(8,27) - 1F(8,27) - 0F(8,10) - 0F(8,15) - 0F(8,18) - V(10,27) <= 0
V(8,10) - 0F(8,27) - 1F(8,10) - 0F(8,15) - 0F(8,18) - V(10,10) <= 0
V(8,15) - 0F(8,27) - 0F(8,10) - 1F(8,15) - 0F(8,18) - V(10,15) <= 0
V(8,18) - 0F(8,27) - 0F(8,10) - 0F(8,15) - 1F(8,18) - V(10,18) <= 0
V(9,27) - 1F(9,27) - 0F(9,10) - 0F(9,15) - 0F(9,18) - V(8,27) <= 0
V(9,10) - 0F(9,27) - 1F(9,10) - 0F(9,15) - 0F(9,18) - V(8,10) <= 0
V(9,15) - 0F(9,27) - 0F(9,10) - 1F(9,15) - 0F(9,18) - V(8,15) <= 0
V(9,18) - 0F(9,27) - 0F(9,10) - 0F(9,15) - 1F(9,18) - V(8,18) <= 0
V(20,27) - 1F(20,27) - 0F(20,10) - 0F(20,15) - 0F(20,18) - V(16,27) <= 0
V(20,10) - 0F(20,27) - 1F(20,10) - 0F(20,15) - 0F(20,18) - V(16,10) <= 0
V(20,15) - 0F(20,27) - 0F(20,10) - 1F(20,15) - 0F(20,18) - V(16,15) <= 0
V(20,18) - 0F(20,27) - 0F(20,10) - 0F(20,15) - 1F(20,18) - V(16,18) <= 0
V(20,27) - 1F(20,27) - 0F(20,10) - 0F(20,15) - 0F(20,18) - V(17,27) <= 0
V(20,10) - 0F(20,27) - 1F(20,10) - 0F(20,15) - 0F(20,18) - V(17,10) <= 0
V(20,15) - 0F(20,27) - 0F(20,10) - 1F(20,15) - 0F(20,18) - V(17,15) <= 0
V(20,18) - 0F(20,27) - 0F(20,10) - 0F(20,15) - 1F(20,18) - V(17,18) <= 0
V(23,27) - 1F(23,27) - 0F(23,10) - 0F(23,15) - 0F(23,18) - V(20,27) <= 0
V(23,10) - 0F(23,27) - 1F(23,10) - 0F(23,15) - 0F(23,18) - V(20,10) <= 0
V(23,15) - 0F(23,27) - 0F(23,10) - 1F(23,15) - 0F(23,18) - V(20,15) <= 0
V(23,18) - 0F(23,27) - 0F(23,10) - 0F(23,15) - 1F(23,18) - V(20,18) <= 0
V(23,27) - 1F(23,27) - 0F(23,10) - 0F(23,15) - 0F(23,18) - V(15,27) <= 0
V(23,10) - 0F(23,27) - 1F(23,10) - 0F(23,15) - 0F(23,18) - V(15,10) <= 0
V(23,15) - 0F(23,27) - 0F(23,10) - 1F(23,15) - 0F(23,18) - V(15,15) <= 0
V(23,18) - 0F(23,27) - 0F(23,10) - 0F(23,15) - 1F(23,18) - V(15,18) <= 0
V(19,27) - 1F(19,27) - 0F(19,10) - 0F(19,15) - 0F(19,18) - V(16,27) <= 0
V(19,10) - 0F(19,27) - 1F(19,10) - 0F(19,15) - 0F(19,18) - V(16,10) <= 0
V(19,15) - 0F(19,27) - 0F(19,10) - 1F(19,15) - 0F(19,18) - V(16,15) <= 0
V(19,18) - 0F(19,27) - 0F(19,10) - 0F(19,15) - 1F(19,18) - V(16,18) <= 0
V(9,27) - 1F(9,27) - 0F(9,10) - 0F(9,15) - 0F(9,18) - V(19,27) <= 0
V(9,10) - 0F(9,27) - 1F(9,10) - 0F(9,15) - 0F(9,18) - V(19,10) <= 0
V(9,15) - 0F(9,27) - 0F(9,10) - 1F(9,15) - 0F(9,18) - V(19,15) <= 0
V(9,18) - 0F(9,27) - 0F(9,10) - 0F(9,15) - 1F(9,18) - V(19,18) <= 0
V(18,27) - 1F(18,27) - 0F(18,10) - 0F(18,15) - 0F(18,18) - V(9,27) <= 0
V(18,10) - 0F(18,27) - 1F(18,10) - 0F(18,15) - 0F(18,18) - V(9,10) <= 0
V(18,15) - 0F(18,27) - 0F(18,10) - 1F(18,15) - 0F(18,18) - V(9,15) <= 0
V(18,18) = 0
V(21,27) - 1F(21,27) - 0F(21,10) - 0F(21,15) - 0F(21,18) - V(18,27) <= 0
V(21,10) - 0F(21,27) - 1F(21,10) - 0F(21,15) - 0F(21,18) - V(18,10) <= 0
V(21,15) - 0F(21,27) - 0F(21,10) - 1F(21,15) - 0F(21,18) - V(18,15) <= 0
V(21,18) - 0F(21,27) - 0F(21,10) - 0F(21,15) - 1F(21,18) - V(18,18) <= 0
V(21,27) - 1F(21,27) - 0F(21,10) - 0F(21,15) - 0F(21,18) - V(19,27) <= 0
V(21,10) - 0F(21,27) - 1F(21,10) - 0F(21,15) - 0F(21,18) - V(19,10) <= 0
V(21,15) - 0F(21,27) - 0F(21,10) - 1F(21,15) - 0F(21,18) - V(19,15) <= 0
V(21,18) - 0F(21,27) - 0F(21,10) - 0F(21,15) - 1F(21,18) - V(19,18) <= 0
V(22,27) - 1F(22,27) - 0F(22,10) - 0F(22,15) - 0F(22,18) - V(19,27) <= 0
V(22,10) - 0F(22,27) - 1F(22,10) - 0F(22,15) - 0F(22,18) - V(19,10) <= 0
V(22,15) - 0F(22,27) - 0F(22,10) - 1F(22,15) - 0F(22,18) - V(19,15) <= 0
V(22,18) - 0F(22,27) - 0F(22,10) - 0F(22,15) - 1F(22,18) - V(19,18) <= 0
V(24,27) - 1F(24,27) - 0F(24,10) - 0F(24,15) - 0F(24,18) - V(21,27) <= 0
V(24,10) - 0F(24,27) - 1F(24,10) - 0F(24,15) - 0F(24,18) - V(21,10) <= 0
V(24,15) - 0F(24,27) - 0F(24,10) - 1F(24,15) - 0F(24,18) - V(21,15) <= 0
V(24,18) - 0F(24,27) - 0F(24,10) - 0F(24,15) - 1F(24,18) - V(21,18) <= 0
V(24,27) - 1F(24,27) - 0F(24,10) - 0F(24,15) - 0F(24,18) - V(22,27) <= 0
V(24,10) - 0F(24,27) - 1F(24,10) - 0F(24,15) - 0F(24,18) - V(22,10) <= 0
V(24,15) - 0F(24,27) - 0F(24,10) - 1F(24,15) - 0F(24,18) - V(22,15) <= 0
V(24,18) - 0F(24,27) - 0F(24,10) - 0F(24,15) - 1F(24,18) - V(22,18) <= 0
V(26,27) - 1F(26,27) - 0F(26,10) - 0F(26,15) - 0F(26,18) - V(24,27) <= 0
V(26,10) - 0F(26,27) - 1F(26,10) - 0F(26,15) - 0F(26,18) - V(24,10) <= 0
V(26,15) - 0F(26,27) - 0F(26,10) - 1F(26,15) - 0F(26,18) - V(24,15) <= 0
V(26,18) - 0F(26,27) - 0F(26,10) - 0F(26,15) - 1F(26,18) - V(24,18) <= 0
V(27,27) = 0
V(27,10) - 0F(27,27) - 1F(27,10) - 0F(27,15) - 0F(27,18) - V(26,10) <= 0
V(27,15) - 0F(27,27) - 0F(27,10) - 1F(27,15) - 0F(27,18) - V(26,15) <= 0
V(27,18) - 0F(27,27) - 0F(27,10) - 0F(27,15) - 1F(27,18) - V(26,18) <= 0
V(28,27) - 1F(28,27) - 0F(28,10) - 0F(28,15) - 0F(28,18) - V(27,27) <= 0
V(28,10) - 0F(28,27) - 1F(28,10) - 0F(28,15) - 0F(28,18) - V(27,10) <= 0
V(28,15) - 0F(28,27) - 0F(28,10) - 1F(28,15) - 0F(28,18) - V(27,15) <= 0
V(28,18) - 0F(28,27) - 0F(28,10) - 0F(28,15) - 1F(28,18) - V(27,18) <= 0
V(25,27) - 1F(25,27) - 0F(25,10) - 0F(25,15) - 0F(25,18) - V(28,27) <= 0
V(25,10) - 0F(25,27) - 1F(25,10) - 0F(25,15) - 0F(25,18) - V(28,10) <= 0
V(25,15) - 0F(25,27) - 0F(25,10) - 1F(25,15) - 0F(25,18) - V(28,15) <= 0
V(25,18) - 0F(25,27) - 0F(25,10) - 0F(25,15) - 1F(25,18) - V(28,18) <= 0
V(23,27) - 1F(23,27) - 0F(23,10) - 0F(23,15) - 0F(23,18) - V(25,27) <= 0
V(23,10) - 0F(23,27) - 1F(23,10) - 0F(23,15) - 0F(23,18) - V(25,10) <= 0
V(23,15) - 0F(23,27) - 0F(23,10) - 1F(23,15) - 0F(23,18) - V(25,15) <= 0
V(23,18) - 0F(23,27) - 0F(23,10) - 0F(23,15) - 1F(23,18) - V(25,18) <= 0
F(0,27) + F(0,10) + F(0,15) + F(0,18) = 1
F(1,27) + F(1,10) + F(1,15) + F(1,18) = 1
F(2,27) + F(2,10) + F(2,15) + F(2,18) = 1
F(3,27) + F(3,10) + F(3,15) + F(3,18) = 1
F(4,27) + F(4,10) + F(4,15) + F(4,18) = 1
F(5,27) + F(5,10) + F(5,15) + F(5,18) = 1
F(6,27) + F(6,10) + F(6,15) + F(6,18) = 1
F(7,27) + F(7,10) + F(7,15) + F(7,18) = 1
F(8,27) + F(8,10) + F(8,15) + F(8,18) = 1
F(9,27) + F(9,10) + F(9,15) + F(9,18) = 1
F(10,27) + F(10,10) + F(10,15) + F(10,18) = 1
F(11,27) + F(11,10) + F(11,15) + F(11,18) = 1
F(12,27) + F(12,10) + F(12,15) + F(12,18) = 1
F(13,27) + F(13,10) + F(13,15) + F(13,18) = 1
F(14,27) + F(14,10) + F(14,15) + F(14,18) = 1
F(15,27) + F(15,10) + F(15,15) + F(15,18) = 1
F(16,27) + F(16,10) + F(16,15) + F(16,18) = 1
F(17,27) + F(17,10) + F(17,15) + F(17,18) = 1
F(18,27) + F(18,10) + F(18,15) + F(18,18) = 1
F(19,27) + F(19,10) + F(19,15) + F(19,18) = 1
F(20,27) + F(20,10) + F(20,15) + F(20,18) = 1
F(21,27) + F(21,10) + F(21,15) + F(21,18) = 1
F(22,27) + F(22,10) + F(22,15) + F(22,18) = 1
F(23,27) + F(23,10) + F(23,15) + F(23,18) = 1
F(24,27) + F(24,10) + F(24,15) + F(24,18) = 1
F(25,27) + F(25,10) + F(25,15) + F(25,18) = 1
F(26,27) + F(26,10) + F(26,15) + F(26,18) = 1
F(27,27) + F(27,10) + F(27,15) + F(27,18) = 1
F(28,27) + F(28,10) + F(28,15) + F(28,18) = 1
bounds
F(0,18) >= 0
F(1,18) >= 0
F(2,18) >= 0
F(3,18) >= 0
F(4,18) >= 0
F(5,18) >= 0
F(6,18) >= 0
F(7,18) >= 0
F(8,18) >= 0
F(9,18) >= 0
F(10,18) >= 0
F(11,18) >= 0
F(12,18) >= 0
F(13,18) >= 0
F(14,18) >= 0
F(15,18) >= 0
F(16,18) >= 0
F(17,18) >= 0
F(18,18) >= 0
F(19,18) >= 0
F(20,18) >= 0
F(21,18) >= 0
F(22,18) >= 0
F(23,18) >= 0
F(24,18) >= 0
F(25,18) >= 0
F(26,18) >= 0
F(27,18) >= 0
F(28,18) >= 0
F(0,18) free
F(1,18) free
F(2,18) free
F(3,18) free
F(4,18) free
F(5,18) free
F(6,18) free
F(7,18) free
F(8,18) free
F(9,18) free
F(10,18) free
F(11,18) free
F(12,18) free
F(13,18) free
F(14,18) free
F(15,18) free
F(16,18) free
F(17,18) free
F(18,18) free
F(19,18) free
F(20,18) free
F(21,18) free
F(22,18) free
F(23,18) free
F(24,18) free
F(25,18) free
F(26,18) free
F(27,18) free
F(28,18) free
end